\ This file has been generated by DOcplex
\ ENCODING=ISO-8859-1
\Problem name: dectiger problem

Maximize
 obj: [ 2.721319531250 a0_u0*a1_u0_x0 - 98.027031250000 a0_u0*a1_u1_x0
      + 11.972968750000 a0_u0*a1_u2_x0 + 19.477031250000 a0_u0*a1_u0_x1
      + 27 a0_u0*a1_u1_x1 - 83 a0_u0*a1_u2_x1 - 98.027031250000 a0_u1*a1_u0_x0
      - 47.027031250000 a0_u1*a1_u1_x0 - 97.027031250000 a0_u1*a1_u2_x0
      + 27 a0_u1*a1_u0_x1 + 38 a0_u1*a1_u1_x1 - 82 a0_u1*a1_u2_x1
      + 11.972968750000 a0_u2*a1_u0_x0 - 97.027031250000 a0_u2*a1_u1_x0
      + 22.972968750000 a0_u2*a1_u2_x0 - 83 a0_u2*a1_u0_x1 - 82 a0_u2*a1_u1_x1
      - 32 a0_u2*a1_u2_x1 ]/2
Subject To
 c1: - 31.280125781250 aj_u0_x0 - 114.679218750000 aj_u1_x0
     - 82.679218750000 aj_u2_x0 - 89.679218750000 aj_u3_x0
     - 23.679218750000 aj_u4_x0 - 31.679218750000 aj_u5_x0
     - 3.679218750000 aj_u6_x0 - 106.679218750000 aj_u7_x0
     - 63.679218750000 aj_u8_x0 + 31.280125781250 a0_u0 + 89.679218750000 a0_u1
     + 3.679218750000 a0_u2 >= 0
 c2: - 31.280125781250 aj_u0_x0 - 114.679218750000 aj_u1_x0
     - 82.679218750000 aj_u2_x0 - 89.679218750000 aj_u3_x0
     - 23.679218750000 aj_u4_x0 - 31.679218750000 aj_u5_x0
     - 3.679218750000 aj_u6_x0 - 106.679218750000 aj_u7_x0
     - 63.679218750000 aj_u8_x0 + 114.679218750000 a0_u0 + 23.679218750000 a0_u1
     + 106.679218750000 a0_u2 >= 0
 c3: - 31.280125781250 aj_u0_x0 - 114.679218750000 aj_u1_x0
     - 82.679218750000 aj_u2_x0 - 89.679218750000 aj_u3_x0
     - 23.679218750000 aj_u4_x0 - 31.679218750000 aj_u5_x0
     - 3.679218750000 aj_u6_x0 - 106.679218750000 aj_u7_x0
     - 63.679218750000 aj_u8_x0 + 82.679218750000 a0_u0 + 31.679218750000 a0_u1
     + 63.679218750000 a0_u2 >= 0
 c4: - 126.603593750000 aj_u0_x1 - 21 aj_u1_x1 - 84 aj_u2_x1 - 98 aj_u3_x1
     - 102 aj_u4_x1 - 21 aj_u5_x1 - 46 aj_u6_x1 - 40 aj_u7_x1 - 111 aj_u8_x1
     + 126.603593750000 a0_u0 + 98 a0_u1 + 46 a0_u2 >= 0
 c5: - 126.603593750000 aj_u0_x1 - 21 aj_u1_x1 - 84 aj_u2_x1 - 98 aj_u3_x1
     - 102 aj_u4_x1 - 21 aj_u5_x1 - 46 aj_u6_x1 - 40 aj_u7_x1 - 111 aj_u8_x1
     + 21 a0_u0 + 102 a0_u1 + 40 a0_u2 >= 0
 c6: - 126.603593750000 aj_u0_x1 - 21 aj_u1_x1 - 84 aj_u2_x1 - 98 aj_u3_x1
     - 102 aj_u4_x1 - 21 aj_u5_x1 - 46 aj_u6_x1 - 40 aj_u7_x1 - 111 aj_u8_x1
     + 84 a0_u0 + 21 a0_u1 + 111 a0_u2 >= 0
 c7: a0_u0 + a0_u1 + a0_u2 = 1
 c8: a1_u0_x0 + a1_u1_x0 + a1_u2_x0 = 1
 c9: aj_u0_x0 + aj_u1_x0 + aj_u2_x0 + aj_u3_x0 + aj_u4_x0 + aj_u5_x0 + aj_u6_x0
     + aj_u7_x0 + aj_u8_x0 = 1
 c10: a1_u0_x1 + a1_u1_x1 + a1_u2_x1 = 1
 c11: aj_u0_x1 + aj_u1_x1 + aj_u2_x1 + aj_u3_x1 + aj_u4_x1 + aj_u5_x1 + aj_u6_x1
      + aj_u7_x1 + aj_u8_x1 = 1
 c12: aj_u0_x0 + aj_u1_x0 + aj_u2_x0 - a0_u0 = 0
 c13: aj_u3_x0 + aj_u4_x0 + aj_u5_x0 - a0_u1 = 0
 c14: aj_u6_x0 + aj_u7_x0 + aj_u8_x0 - a0_u2 = 0
 c15: aj_u0_x1 + aj_u1_x1 + aj_u2_x1 - a0_u0 = 0
 c16: aj_u3_x1 + aj_u4_x1 + aj_u5_x1 - a0_u1 = 0
 c17: aj_u6_x1 + aj_u7_x1 + aj_u8_x1 - a0_u2 = 0
 c18: aj_u0_x0 + aj_u3_x0 + aj_u6_x0 - a1_u0_x0 = 0
 c19: aj_u1_x0 + aj_u4_x0 + aj_u7_x0 - a1_u1_x0 = 0
 c20: aj_u2_x0 + aj_u5_x0 + aj_u8_x0 - a1_u2_x0 = 0
 c21: aj_u0_x1 + aj_u3_x1 + aj_u6_x1 - a1_u0_x1 = 0
 c22: aj_u1_x1 + aj_u4_x1 + aj_u7_x1 - a1_u1_x1 = 0
 c23: aj_u2_x1 + aj_u5_x1 + aj_u8_x1 - a1_u2_x1 = 0

Bounds
       a0_u0 <= 1
       a0_u1 <= 1
       a0_u2 <= 1
 0 <= a1_u0_x0 <= 1
 0 <= a1_u1_x0 <= 1
 0 <= a1_u2_x0 <= 1
       aj_u0_x0 <= 1
       aj_u1_x0 <= 1
       aj_u2_x0 <= 1
       aj_u3_x0 <= 1
       aj_u4_x0 <= 1
       aj_u5_x0 <= 1
       aj_u6_x0 <= 1
       aj_u7_x0 <= 1
       aj_u8_x0 <= 1
 0 <= a1_u0_x1 <= 1
 0 <= a1_u1_x1 <= 1
 0 <= a1_u2_x1 <= 1
       aj_u0_x1 <= 1
       aj_u1_x1 <= 1
       aj_u2_x1 <= 1
       aj_u3_x1 <= 1
       aj_u4_x1 <= 1
       aj_u5_x1 <= 1
       aj_u6_x1 <= 1
       aj_u7_x1 <= 1
       aj_u8_x1 <= 1

Binaries
 a1_u0_x0 a1_u1_x0 a1_u2_x0 a1_u0_x1 a1_u1_x1 a1_u2_x1
End
